Normalized Data/p04_1050_tsplib0_normalized_split0.vrp
NAME:p04_1050_tsplib0_NORMALIZED_split
BEST_KNOWN: 0
COMMENT: 0
DIMENSION: 644
CAPACITY: 100
EDGE_WEIGHT_FORMAT: FUNCTION
EDGE_WEIGHT_TYPE: EXACT_2D
NODE_COORD_SECTION
1 0.00000 0.00000
2 2 17
3 2 17
4 2 17
5 2 17
6 2 17
7 2 17
8 14 14
9 14 14
10 17 29
11 17 29
12 17 29
13 17 29
14 17 29
15 17 29
16 -15 -9
17 -15 -9
18 -15 -9
19 -15 -9
20 5 -5
21 5 -5
22 5 -5
23 5 -5
24 -14 12
25 -14 12
26 -14 12
27 -14 12
28 -14 12
29 -14 12
30 -18 28
31 -18 28
32 -18 28
33 -18 28
34 -18 28
35 -18 28
36 -4 27
37 -4 27
38 -4 27
39 -4 27
40 -4 27
41 17 -2
42 17 -2
43 17 -2
44 17 -2
45 17 -2
46 16 -14
47 16 -14
48 7 6
49 7 6
50 7 6
51 7 6
52 -4 -3
53 -4 -3
54 -30 -10
55 -30 -10
56 -30 -10
57 -30 -10
58 -30 -10
59 -23 7
60 -23 7
61 1 -19
62 1 -19
63 1 -19
64 1 -19
65 1 -19
66 1 -19
67 17 6
68 17 6
69 -8 -12
70 -8 -12
71 -8 -12
72 -8 -12
73 -18 -2
74 -18 -2
75 -22 -22
76 -22 -22
77 -22 -22
78 -22 -22
79 -22 -22
80 -22 -22
81 22 23
82 22 23
83 22 23
84 27 7
85 27 7
86 27 7
87 27 7
88 27 7
89 7 22
90 7 22
91 7 22
92 -19 22
93 -19 22
94 -19 22
95 -19 22
96 -27 17
97 -27 17
98 -27 17
99 -27 17
100 -27 17
101 -28 3
102 -28 3
103 -28 3
104 -8 33
105 -8 33
106 -8 33
107 -8 33
108 -8 33
109 -8 33
110 -8 33
111 -5 13
112 -5 13
113 8 32
114 8 32
115 8 32
116 23 13
117 23 13
118 23 13
119 23 -8
120 23 -8
121 23 -8
122 23 -8
123 23 -8
124 2 34
125 2 34
126 2 34
127 2 34
128 2 34
129 2 34
130 3 11
131 3 11
132 3 11
133 3 11
134 11 -25
135 11 -25
136 11 -25
137 11 -25
138 11 -25
139 26 -2
140 26 -2
141 26 -2
142 26 -2
143 26 -2
144 27 28
145 27 28
146 27 28
147 27 28
148 27 28
149 28 34
150 28 34
151 28 34
152 28 34
153 28 34
154 28 34
155 -3 -13
156 -3 -13
157 -3 -13
158 10 0
159 10 0
160 10 0
161 10 0
162 10 0
163 10 0
164 24 -20
165 24 -20
166 24 -20
167 24 -20
168 24 -20
169 24 -20
170 -30 -29
171 -30 -29
172 -30 -29
173 -30 -29
174 -30 -29
175 -25 -18
176 -25 -18
177 -25 -18
178 -25 -18
179 -14 -25
180 -14 -25
181 -14 -25
182 -30 29
183 -30 29
184 -30 29
185 -5 -20
186 -5 -20
187 -5 -20
188 -5 -20
189 4 -25
190 4 -25
191 4 -25
192 -3 4
193 -3 4
194 -10 -3
195 -10 -3
196 -10 -3
197 -10 -3
198 -10 -3
199 -10 -3
200 -10 20
201 -10 20
202 -10 20
203 -10 20
204 13 -7
205 13 -7
206 13 -7
207 13 -7
208 13 -7
209 21 2
210 21 2
211 21 2
212 21 2
213 21 2
214 21 2
215 6 14
216 6 14
217 6 14
218 6 14
219 0 -18
220 0 -18
221 0 -18
222 0 -18
223 20 10
224 20 10
225 20 10
226 20 10
227 20 -15
228 20 -15
229 20 -15
230 20 -15
231 -20 -5
232 -20 -5
233 -20 -5
234 -20 -5
235 -20 -5
236 -20 -5
237 -20 -5
238 -10 -5
239 -10 -5
240 -10 -5
241 -10 -5
242 -10 -5
243 -10 -5
244 -10 -5
245 -15 15
246 -15 15
247 -15 15
248 -25 8
249 -25 8
250 -25 8
251 -25 8
252 -25 8
253 -25 8
254 20 25
255 20 25
256 20 25
257 -5 25
258 -5 25
259 -5 25
260 -5 25
261 -15 30
262 -15 30
263 -15 30
264 15 0
265 -5 -10
266 -5 -10
267 -5 -10
268 -20 -25
269 -20 -25
270 -5 -30
271 -5 -30
272 -5 -30
273 -5 -30
274 -5 -30
275 -25 -15
276 -25 -15
277 -25 -15
278 -25 -15
279 -25 -15
280 -25 -15
281 -30 -5
282 -30 -5
283 -30 -5
284 -30 -5
285 -30 -5
286 -30 -5
287 -15 5
288 -15 5
289 -15 5
290 -15 5
291 -20 25
292 -20 25
293 -20 25
294 -20 25
295 -20 25
296 -20 25
297 -20 25
298 10 30
299 10 30
300 10 30
301 10 30
302 10 30
303 10 30
304 10 -15
305 10 -15
306 10 -15
307 10 -15
308 10 -15
309 10 -25
310 10 -25
311 10 -25
312 20 -30
313 20 -30
314 20 -30
315 20 -30
316 20 -30
317 30 0
318 30 0
319 30 0
320 30 0
321 30 0
322 30 0
323 30 0
324 30 -15
325 30 -15
326 30 -15
327 10 -5
328 10 -5
329 10 -5
330 10 -5
331 0 5
332 0 5
333 0 5
334 0 5
335 0 5
336 6 2
337 6 2
338 6 2
339 6 2
340 6 2
341 6 2
342 29 7
343 29 7
344 29 7
345 29 7
346 5 25
347 5 25
348 5 25
349 5 25
350 -4 17
351 -4 17
352 -4 17
353 -4 17
354 0 34
355 0 34
356 18 17
357 18 17
358 18 17
359 18 17
360 18 17
361 30 20
362 30 20
363 30 20
364 28 30
365 28 30
366 28 30
367 28 30
368 28 30
369 28 30
370 28 30
371 -33 25
372 -33 25
373 -33 25
374 -15 -15
375 -15 -15
376 -15 -15
377 -15 -15
378 -15 -15
379 -15 -15
380 -15 -15
381 -30 -30
382 -30 -30
383 -30 -30
384 -30 -30
385 25 -23
386 25 -23
387 25 -23
388 25 -23
389 25 -23
390 25 -23
391 5 -10
392 5 -10
393 5 -10
394 5 -10
395 5 -10
396 7 -28
397 7 -28
398 7 -28
399 7 -28
400 -11 -23
401 -11 -23
402 -11 -23
403 -11 -23
404 -11 -23
405 -12 -32
406 -12 -32
407 -12 -32
408 -12 -32
409 -24 -21
410 -24 -21
411 -24 -21
412 -24 -21
413 -24 -21
414 -29 3
415 -29 3
416 -29 3
417 -29 3
418 -29 3
419 -33 13
420 -33 13
421 -33 13
422 -27 21
423 -27 21
424 -22 17
425 -22 17
426 -22 17
427 -22 17
428 -29 33
429 -29 33
430 12 12
431 12 12
432 12 12
433 12 12
434 12 12
435 14 23
436 14 23
437 14 23
438 14 23
439 -8 8
440 -8 8
441 -8 8
442 2 -4
443 2 -4
444 22 -6
445 22 -6
446 22 -6
447 22 -6
448 22 -6
449 22 -6
450 28 -12
451 28 -12
452 28 -12
453 28 -12
454 18 -23
455 18 -23
456 18 -23
457 18 -23
458 18 -23
459 -3 -23
460 -3 -23
461 -3 -23
462 -3 -23
463 1 -9
464 1 -9
465 1 -9
466 1 -9
467 -14 -11
468 -14 -11
469 -14 -11
470 -18 -1
471 -18 -1
472 -18 -1
473 -18 -1
474 -23 -11
475 -23 -11
476 -23 -11
477 -23 -11
478 -11 23
479 -11 23
480 -11 23
481 -11 23
482 -8 34
483 -20 42
484 -20 42
485 -20 42
486 27 42
487 27 42
488 27 42
489 27 42
490 27 42
491 14 38
492 14 38
493 32 -30
494 32 -30
495 32 -30
496 32 -30
497 32 -30
498 21 4
499 21 4
500 21 4
501 21 4
502 21 4
503 2 12
504 2 12
505 2 21
506 2 21
507 2 21
508 2 21
509 2 21
510 22 33
511 22 33
512 22 33
513 22 33
514 12 -19
515 12 -19
516 12 -19
517 12 -19
518 12 -19
519 12 -19
520 9 -18
521 9 -18
522 9 -18
523 11 -22
524 11 -22
525 14 -24
526 14 -24
527 14 -24
528 14 -24
529 14 7
530 14 7
531 14 7
532 18 8
533 18 8
534 18 8
535 18 8
536 18 8
537 18 8
538 26 17
539 26 17
540 26 17
541 26 17
542 26 17
543 26 17
544 22 13
545 22 13
546 22 13
547 22 13
548 22 13
549 21 2
550 21 2
551 21 2
552 21 2
553 21 2
554 20 19
555 20 19
556 20 19
557 -20 12
558 -20 12
559 -20 12
560 -20 12
561 -20 12
562 -20 12
563 -21 2
564 -21 2
565 -21 2
566 -24 -4
567 -24 -4
568 -24 -4
569 -24 -4
570 -24 -4
571 -24 -4
572 -24 -4
573 -19 -13
574 -19 -13
575 -19 -13
576 -31 -17
577 -31 -17
578 -31 -17
579 -31 -17
580 -31 -17
581 -7 -17
582 -7 -17
583 -7 -17
584 -7 -17
585 -9 17
586 -9 17
587 -9 17
588 -9 0
589 -9 0
590 -9 0
591 -4 32
592 -4 32
593 -4 32
594 -4 32
595 -4 32
596 -20 -16
597 -20 -16
598 -20 -16
599 -20 -16
600 -13 -13
601 -13 -13
602 -13 -13
603 -13 -13
604 -13 -13
605 -13 -13
606 -17 -11
607 -17 -11
608 -17 -11
609 -17 -11
610 -17 -11
611 -9 -8
612 -9 -8
613 -9 -8
614 -9 -8
615 -10 -11
616 -10 -11
617 -10 -11
618 -10 -11
619 -13 -8
620 -13 -8
621 -13 -8
622 -13 -8
623 -13 -8
624 -10 -14
625 -10 -14
626 -10 -14
627 -10 -14
628 -10 -14
629 -10 -14
630 -10 -14
631 -16 -14
632 -16 -14
633 -16 -14
634 -16 -14
635 -16 -14
636 -15 -9
637 -15 -9
638 -15 -9
639 -15 -9
640 -17 -17
641 -17 -17
642 -17 -17
643 -17 -17
644 -17 -17
DEMAND_SECTION
1 0
2 20
3 20
4 1
5 1
6 1
7 1
8 20
9 5
10 10
11 5
12 1
13 1
14 1
15 1
16 20
17 10
18 1
19 1
20 20
21 20
22 5
23 1
24 20
25 20
26 1
27 1
28 1
29 1
30 20
31 5
32 1
33 1
34 1
35 1
36 10
37 1
38 1
39 1
40 1
41 10
42 5
43 1
44 1
45 1
46 10
47 1
48 20
49 20
50 1
51 1
52 20
53 5
54 20
55 5
56 1
57 1
58 1
59 20
60 10
61 20
62 10
63 5
64 1
65 1
66 1
67 20
68 1
69 10
70 1
71 1
72 1
73 20
74 10
75 20
76 20
77 1
78 1
79 1
80 1
81 20
82 10
83 1
84 10
85 1
86 1
87 1
88 1
89 20
90 10
91 5
92 20
93 10
94 5
95 1
96 20
97 10
98 1
99 1
100 1
101 20
102 20
103 1
104 20
105 10
106 5
107 1
108 1
109 1
110 1
111 10
112 1
113 20
114 20
115 1
116 10
117 5
118 1
119 10
120 1
121 1
122 1
123 1
124 20
125 20
126 1
127 1
128 1
129 1
130 20
131 20
132 1
133 1
134 20
135 20
136 1
137 1
138 1
139 10
140 5
141 1
142 1
143 1
144 20
145 20
146 1
147 1
148 1
149 20
150 5
151 1
152 1
153 1
154 1
155 20
156 20
157 1
158 20
159 5
160 1
161 1
162 1
163 1
164 20
165 5
166 1
167 1
168 1
169 1
170 20
171 20
172 1
173 1
174 1
175 10
176 5
177 1
178 1
179 10
180 1
181 1
182 20
183 10
184 5
185 20
186 10
187 5
188 1
189 20
190 20
191 5
192 20
193 1
194 20
195 5
196 1
197 1
198 1
199 1
200 20
201 5
202 1
203 1
204 20
205 20
206 1
207 1
208 1
209 20
210 10
211 1
212 1
213 1
214 1
215 20
216 10
217 5
218 1
219 20
220 10
221 5
222 1
223 10
224 1
225 1
226 1
227 20
228 20
229 5
230 1
231 20
232 10
233 5
234 1
235 1
236 1
237 1
238 20
239 10
240 5
241 1
242 1
243 1
244 1
245 20
246 1
247 1
248 20
249 10
250 5
251 1
252 1
253 1
254 20
255 5
256 1
257 20
258 1
259 1
260 1
261 20
262 20
263 5
264 20
265 20
266 1
267 1
268 20
269 1
270 20
271 1
272 1
273 1
274 1
275 20
276 5
277 1
278 1
279 1
280 1
281 20
282 20
283 1
284 1
285 1
286 1
287 10
288 1
289 1
290 1
291 20
292 20
293 5
294 1
295 1
296 1
297 1
298 20
299 20
300 1
301 1
302 1
303 1
304 20
305 20
306 5
307 1
308 1
309 20
310 20
311 5
312 20
313 20
314 1
315 1
316 1
317 20
318 20
319 5
320 1
321 1
322 1
323 1
324 10
325 1
326 1
327 20
328 1
329 1
330 1
331 20
332 10
333 1
334 1
335 1
336 20
337 10
338 5
339 1
340 1
341 1
342 20
343 10
344 1
345 1
346 20
347 20
348 1
349 1
350 20
351 10
352 5
353 1
354 20
355 1
356 20
357 10
358 5
359 1
360 1
361 20
362 10
363 5
364 20
365 20
366 5
367 1
368 1
369 1
370 1
371 20
372 20
373 1
374 20
375 20
376 5
377 1
378 1
379 1
380 1
381 20
382 20
383 1
384 1
385 20
386 20
387 1
388 1
389 1
390 1
391 10
392 1
393 1
394 1
395 1
396 20
397 20
398 1
399 1
400 20
401 10
402 1
403 1
404 1
405 10
406 5
407 1
408 1
409 20
410 20
411 5
412 1
413 1
414 20
415 10
416 5
417 1
418 1
419 20
420 20
421 1
422 20
423 20
424 20
425 5
426 1
427 1
428 20
429 20
430 10
431 1
432 1
433 1
434 1
435 20
436 10
437 5
438 1
439 20
440 20
441 1
442 20
443 20
444 20
445 20
446 5
447 1
448 1
449 1
450 20
451 5
452 1
453 1
454 10
455 5
456 1
457 1
458 1
459 10
460 1
461 1
462 1
463 20
464 10
465 1
466 1
467 20
468 1
469 1
470 20
471 20
472 5
473 1
474 20
475 20
476 5
477 1
478 20
479 10
480 5
481 1
482 10
483 20
484 1
485 1
486 20
487 10
488 5
489 1
490 1
491 20
492 5
493 20
494 1
495 1
496 1
497 1
498 20
499 20
500 1
501 1
502 1
503 20
504 20
505 20
506 20
507 5
508 1
509 1
510 20
511 1
512 1
513 1
514 20
515 5
516 1
517 1
518 1
519 1
520 10
521 1
522 1
523 20
524 5
525 20
526 10
527 5
528 1
529 20
530 10
531 1
532 20
533 20
534 5
535 1
536 1
537 1
538 20
539 5
540 1
541 1
542 1
543 1
544 20
545 10
546 5
547 1
548 1
549 20
550 5
551 1
552 1
553 1
554 20
555 10
556 5
557 20
558 10
559 1
560 1
561 1
562 1
563 20
564 20
565 1
566 20
567 10
568 5
569 1
570 1
571 1
572 1
573 20
574 20
575 1
576 20
577 10
578 1
579 1
580 1
581 20
582 10
583 1
584 1
585 20
586 1
587 1
588 20
589 1
590 1
591 20
592 20
593 5
594 1
595 1
596 20
597 10
598 1
599 1
600 20
601 10
602 1
603 1
604 1
605 1
606 20
607 10
608 1
609 1
610 1
611 10
612 5
613 1
614 1
615 20
616 10
617 5
618 1
619 20
620 10
621 5
622 1
623 1
624 20
625 20
626 5
627 1
628 1
629 1
630 1
631 10
632 5
633 1
634 1
635 1
636 20
637 10
638 1
639 1
640 20
641 1
642 1
643 1
644 1
DEPOT_SECTION
1
-1
EOF