Normalized Data/p04_1050_tsplib0_normalized_split0.sol
643 -4 5 6 3 1 2 506 508 505 504 507 -21 22 20 19 442 441 -24 25 27 23 28 26 244 556 559 557 558 560 561 -30 33 29 34 31 32 262 260 261 477 202 201 -38 36 39 594 593 592 591 590 481 105 108 107 103 106 109 104 -40 44 43 42 41 447 446 448 443 444 445 139 141 142 140 138 549 551 213 212 159 158 162 -45 46 228 229 227 226 203 206 204 207 205 -47 129 130 502 503 -49 50 48 359 356 358 355 357 7 8 431 430 429 433 432 -51 52 197 193 196 194 -58 59 248 247 249 251 250 252 562 -61 65 63 64 188 190 189 397 395 396 398 -70 71 69 68 625 627 629 626 628 623 624 614 615 617 616 -73 72 471 470 472 469 588 587 589 -83 84 87 85 86 344 342 343 341 320 321 319 318 316 322 317 160 161 -90 89 299 301 298 302 300 297 114 113 112 -93 94 92 91 290 291 295 292 294 293 296 110 111 -95 97 98 99 96 422 421 423 424 425 426 -100 102 101 415 413 417 414 416 563 564 -122 120 121 119 118 450 451 449 452 325 324 323 385 389 387 388 386 384 -124 125 127 123 126 128 353 354 37 35 256 258 259 257 -131 132 345 346 347 348 88 216 214 217 215 -144 143 147 146 145 363 361 360 362 -155 154 156 583 581 582 580 264 266 265 -164 166 165 167 168 163 492 494 495 496 493 312 311 314 315 313 515 516 517 -172 173 169 170 171 381 383 382 380 78 76 603 604 613 612 611 -177 174 176 175 411 408 410 409 412 595 596 598 597 -185 187 186 184 60 62 219 220 218 221 465 -192 191 440 438 439 331 330 332 334 333 -195 198 566 568 565 569 232 230 231 234 235 236 233 242 239 241 237 -210 211 550 552 548 209 208 497 499 501 498 500 -243 240 238 637 636 16 15 635 17 620 618 -245 246 183 182 181 428 427 482 484 483 -254 255 253 82 81 80 555 553 554 -267 268 77 79 75 74 640 641 639 643 642 376 378 379 377 375 -286 288 289 287 418 420 419 372 370 371 -309 310 308 136 135 137 133 134 523 520 521 391 392 -328 329 327 326 263 157 336 337 335 339 340 -338 67 66 532 536 531 533 529 528 530 -349 351 352 350 479 478 480 200 199 586 585 584 -365 368 364 366 367 369 152 148 151 153 150 149 488 486 489 487 485 512 511 510 -393 390 394 305 303 304 307 306 519 462 463 464 -403 402 400 401 399 180 179 178 406 404 405 407 271 270 269 273 272 461 459 460 458 -437 434 436 435 13 11 14 9 12 10 509 491 490 -468 466 467 572 573 574 608 607 609 605 638 18 621 619 622 -473 53 55 56 57 54 282 283 281 284 285 280 567 570 571 -476 474 475 578 577 579 576 575 278 276 274 277 275 279 606 -513 514 518 453 454 456 455 457 527 525 524 526 522 -534 535 225 223 224 222 117 116 115 541 537 539 540 542 538 546 543 547 545 544 -599 600 601 602 374 373 632 630 631 633 634 610 0 





OBJ=
2915.660
BEST_KNOWN=
0.000